(declare-const x0 Bool)
(declare-const x1 Bool)
(declare-const x2 Bool)
(declare-const x3 Bool)
(declare-const x4 Bool)
(declare-const x5 Bool)
(declare-const x6 Bool)
(declare-const x7 Bool)
(declare-const x8 Bool)
(declare-const x9 Bool)
(declare-const x10 Bool)
(declare-const x11 Bool)
(declare-const x12 Bool)
(declare-const x13 Bool)
(declare-const x14 Bool)
(declare-const x15 Bool)
(declare-const x16 Bool)
(declare-const x17 Bool)
(declare-const x18 Bool)
(declare-const x19 Bool)
(declare-const x20 Bool)
(declare-const x21 Bool)
(declare-const x22 Bool)
(declare-const x23 Bool)
(declare-const x24 Bool)
(declare-const x25 Bool)
(declare-const x26 Bool)
(declare-const x27 Bool)
(declare-const x28 Bool)
(declare-const x29 Bool)
(declare-const x30 Bool)
(declare-const x31 Bool)
(declare-const x32 Bool)
(declare-const x33 Bool)
(assert (and (or (and (= true x12) (or false (and x0 true))) (or x23 x21)) true))
(assert (and x32 (= (and (= false false) true) (or (and x33 x9) (or false true)))))
(assert (and (and x1 true) (or (and x19 x30) (= (= x14 x21) (and false false)))))
(assert (and false (or (= x26 x6) (= (or false true) (and x23 true)))))
(assert (or (or true x6) (= true true)))
(assert (and x22 (or x6 true)))
(assert (or (and (and x18 false) false) (and (or true true) x29)))
(assert (or (or x18 false) true))
(assert (and (or x21 true) (= (= true x10) (and false false))))
(assert (and x25 (= (or (= false x19) (or false x11)) true)))
(check-sat)
